objective value:                                 3826
delta[0,0]*                                         3 	(obj:392)
delta[1,1]*                                        10 	(obj:265)
mu[1,1,41]*                          1.54320747391792 	(obj:0)
mu[1,1,51]*                          2.09803093020487 	(obj:0)
mu[1,1,57]*                         0.543221709403603 	(obj:0)
mu[1,1,61]*                         0.093199189847695 	(obj:0)
mu[0,0,64]*                        0.0426459957345074 	(obj:0)
mu[1,1,65]*                          1.38547556804956 	(obj:0)
mu[0,0,66]*                          1.34395738034646 	(obj:0)
mu[1,1,69]*                          4.28886681096835 	(obj:0)
mu[0,0,70]*                         0.506783266874599 	(obj:0)
mu[0,0,72]*                          1.10661335704444 	(obj:0)
